files/upTests/___parts/param1/0001.eprime.solution
language ESSENCE' 1.0
$ minion Nodes: 23
$ minion TotalTime: 0.008393
$ Savile Row TotalTime: 0.685
letting x_ExplicitVarSize_tuple2_Occurrence be [[0, 0, 1], 
[0, 0, 1], 
[0, 0, 1], 
[0, 0, 1], 
[0, 0, 1], 
[0, 0, 1], 
[0, 1, 0], 
[0, 1, 1]]
letting x_ExplicitVarSize_tuple1 be [0, 0, 0, 0, 0, 1, 1, 1]
